1 3 100 289132.06
1 3 200 286489.76
1 3 300 299308.41
2 3 100 427031.61
2 3 200 425055.86
2 3 300 447533.78
3 3 100 404378.10
3 3 200 405278.87
3 3 300 394644.61
4 3 100 355996.91
4 3 200 346548.98
4 3 300 350861.74
5 3 100 265775.96
5 3 200 288687.22
5 3 300 286041.60
